1
0 0
1 1
31
32
0 1
1 2
30
31
0 2
1 3
29
30
0 3
1 4
28
29
0 4
1 5
27
28
0 5
1 6
26
27
0 6
1 7
25
26
0 7
1 8
24
25
0 8
1 9
23
24
0 9
1 10
22
23
0 10
1 11
21
22
0 11
1 12
20
21
0 12
1 13
19
20
0 13
1 14
18
19
0 14
1 15
17
18
0 15
1 16
16
17
0 16
1 17
15
16
0 17
1 18
14
15
0 18
1 19
13
14
0 19
1 20
12
13
0 20
1 21
11
12
0 21
1 22
10
11
0 22
1 23
9
10
0 23
1 24
8
9
0 24
1 25
7
8
0 25
1 26
6
7
0 26
1 27
5
6
0 27
1 28
4
5
0 28
1 29
3
4
0 29
1 30
2
3
0 30
1 31
1
2
0 31
1 32
0
1
